webassembly/ejemplos_dzn/folder9_json_79.dzn
TERM = { '.', 's(2)', 'in_1', 'local_0', 'in_6', 'in_2', 'in_4', 'in_3', 's(1)', 's(0)', 'in_7', 'in_5', 's(3)', 'in_0'};
null = '.';
s = 9;
n = 13;
ndeps = 5;
max_registers_sz = 4;
NR = 1;
registers = [|'local_0', 'in_4'|];
dependencies = [|'i32.store8_0', 'i32.store16_2', |'i32.store16_2', 'i32.load16_s_4', |'i32.load16_s_4', 'i32.store_5', |'i32.store_5', 'i32.load16_u_6', |'i32.store_5', 'i32.load8_s_8'|];
GET_ENUM = { GET1, GET2, GET3, GET4, GET5};
SET_ENUM = { SET1, SET2, SET3, SET4, SET5};
TEE_ENUM = { TEE1, TEE2, TEE3, TEE4, TEE5};
N = 7;
OP = { 'i32.store8_0', 'i32.store16_2', 'i32.load16_s_4', 'i32.store_5', 'i32.load16_u_6', 'i32.add_0', 'i32.load8_s_8' };
in_ops = [2, 2, 1, 2, 1, 2, 1 ];
out_ops = [0, 0, 1, 0, 1, 1, 1 ];
in1 = ['in_0', 'in_2', 'in_4', 's(0)', 'in_6', 's(1)', 's(2)' ];
in2 = ['in_1', 'in_3', '.', 'in_5', '.', 'in_7', '.' ];
in3 = ['.', '.', '.', '.', '.', '.', '.' ];
out1 = ['.', '.', 's(0)', '.', 's(1)', 's(2)', 's(3)' ];
out2 = ['.', '.', '.', '.', '.', '.', '.' ];
out3 = ['.', '.', '.', '.', '.', '.', '.' ];
comm = [false, false, false, false, false, true, false ];
gas = [1, 1, 1, 1, 1, 1, 1 ];
sz = [1, 1, 1, 1, 1, 1, 1 ];
stor = [true, true, false, true, false, false, false ];
lb = [ 1, 1, 1, 1, 1, 1, 1 ];
ub = [ 9, 9, 9, 9, 9, 9, 9 ];
startstack = [ 'in_0', 'in_1', 'in_2', 'in_3', 'in_4', 'in_5', 'in_6', 'in_7', null, null, null, null, null ];
endstack = [ 's(3)', null, null, null, null, null, null, null, null, null, null, null, null ];
