webassembly/ejemplos_results/9/folder9_json_79.txt
value = 9;
fgas = [1, 1, 1, 1, 1, 1, 1, 1, 1];
fsize = [1, 1, 1, 1, 1, 1, 1, 1, 1];
states = 
[|   in_0,   in_1, in_2, in_3, in_4, in_5, in_6, in_7, '.', '.', '.', '.', '.'
 |   in_6,   in_7, in_4, in_5, in_6, in_7,  '.',  '.', '.', '.', '.', '.', '.'
 | 's(1)',   in_7, in_4, in_5, in_6, in_7,  '.',  '.', '.', '.', '.', '.', '.'
 | 's(2)',   in_4, in_5, in_6, in_7,  '.',  '.',  '.', '.', '.', '.', '.', '.'
 | 's(3)',   in_4, in_5, in_6, in_7,  '.',  '.',  '.', '.', '.', '.', '.', '.'
 |   in_4,   in_5, in_6, in_7,  '.',  '.',  '.',  '.', '.', '.', '.', '.', '.'
 | 's(0)',   in_5, in_6, in_7,  '.',  '.',  '.',  '.', '.', '.', '.', '.', '.'
 |   in_2,   in_3,  '.',  '.',  '.',  '.',  '.',  '.', '.', '.', '.', '.', '.'
 |   in_4, 's(3)',  '.',  '.',  '.',  '.',  '.',  '.', '.', '.', '.', '.', '.'
 | 's(3)',    '.',  '.',  '.',  '.',  '.',  '.',  '.', '.', '.', '.', '.', '.'
 |];
register_states = 
[| local_0, '.', '.', '.', '.'
 | local_0, '.', '.', '.', '.'
 | local_0, '.', '.', '.', '.'
 | local_0, '.', '.', '.', '.'
 | local_0, '.', '.', '.', '.'
 |  's(3)', '.', '.', '.', '.'
 |  's(3)', '.', '.', '.', '.'
 |  's(3)', '.', '.', '.', '.'
 |  's(3)', '.', '.', '.', '.'
 |    in_4, '.', '.', '.', '.'
 |];
program = [O('i32.store8_0'), O('i32.load16_u_6'), O('i32.add_0'), O('i32.load8_s_8'), S(SET1), O('i32.load16_s_4'), O('i32.store_5'), O('i32.store16_2'), S(SET1)];
% time elapsed: 0.23 s
----------
value = 8;
fgas = [1, 1, 1, 1, 1, 1, 1, 1, 0];
fsize = [1, 1, 1, 1, 1, 1, 1, 1, 1];
states = 
[|   in_0, in_1, in_2, in_3, in_4, in_5, in_6, in_7, '.', '.', '.', '.', '.'
 |   in_2, in_3, in_4, in_5, in_6, in_7,  '.',  '.', '.', '.', '.', '.', '.'
 |   in_4, in_5, in_6, in_7,  '.',  '.',  '.',  '.', '.', '.', '.', '.', '.'
 |   in_4, in_5, in_6, in_7,  '.',  '.',  '.',  '.', '.', '.', '.', '.', '.'
 | 's(0)', in_5, in_6, in_7,  '.',  '.',  '.',  '.', '.', '.', '.', '.', '.'
 |   in_6, in_7,  '.',  '.',  '.',  '.',  '.',  '.', '.', '.', '.', '.', '.'
 | 's(1)', in_7,  '.',  '.',  '.',  '.',  '.',  '.', '.', '.', '.', '.', '.'
 | 's(2)',  '.',  '.',  '.',  '.',  '.',  '.',  '.', '.', '.', '.', '.', '.'
 | 's(3)',  '.',  '.',  '.',  '.',  '.',  '.',  '.', '.', '.', '.', '.', '.'
 | 's(3)',  '.',  '.',  '.',  '.',  '.',  '.',  '.', '.', '.', '.', '.', '.'
 |];
register_states = 
[| local_0, '.', '.', '.', '.'
 | local_0, '.', '.', '.', '.'
 | local_0, '.', '.', '.', '.'
 |    in_4, '.', '.', '.', '.'
 |    in_4, '.', '.', '.', '.'
 |    in_4, '.', '.', '.', '.'
 |    in_4, '.', '.', '.', '.'
 |    in_4, '.', '.', '.', '.'
 |    in_4, '.', '.', '.', '.'
 |    in_4, '.', '.', '.', '.'
 |];
program = [O('i32.store8_0'), O('i32.store16_2'), TEE(TEE1), O('i32.load16_s_4'), O('i32.store_5'), O('i32.load16_u_6'), O('i32.add_0'), O('i32.load8_s_8'), NOP];
% time elapsed: 0.23 s
----------
==========
% time elapsed: 0.24 s
% [value > 7]
